\Problem name: 2-way partition

Minimize
OBJROW: - x_net1237_0 - x_net1237_1 - x_net1240_0 - x_net1240_1 - x_net1233_0 - x_net1233_1 - x_net1236_0 - x_net1236_1 - x_net1234_0 - x_net1234_1
 - x_net1232_0 - x_net1232_1 - x_net1231_0 - x_net1231_1 - x_net1239_0 - x_net1239_1 - x_net1235_0 - x_net1235_1 - x_net1238_0 - x_net1238_1
 - x_net1230_0 - x_net1230_1
Subject To
constr(0):  x_inst2015_0 + x_inst2015_1 = 1
constr(1):  x_inst2591_0 + x_inst2591_1 = 1
constr(2):  x_inst2908_0 + x_inst2908_1 = 1
constr(3):  x_inst3428_0 + x_inst3428_1 = 1
constr(4):  x_inst3502_0 + x_inst3502_1 = 1
constr(5):  x_inst3444_0 + x_inst3444_1 = 1
constr(6):  x_inst4132_0 + x_inst4132_1 = 1
constr(7):  x_inst4183_0 + x_inst4183_1 = 1
constr(8):  x_inst4062_0 + x_inst4062_1 = 1
constr(9):  x_inst4678_0 + x_inst4678_1 = 1
constr(10):  x_inst4189_0 + x_inst4189_1 = 1
constr(11):  x_inst4597_0 + x_inst4597_1 = 1
constr(12):  x_inst4382_0 + x_inst4382_1 = 1
constr(13):  x_inst5333_0 + x_inst5333_1 = 1
constr(14):  x_inst5638_0 + x_inst5638_1 = 1
constr(15):  x_inst6286_0 + x_inst6286_1 = 1
constr(16):  x_inst5275_0 + x_inst5275_1 = 1
constr(17):  x_inst5821_0 + x_inst5821_1 = 1
constr(18):  x_inst6458_0 + x_inst6458_1 = 1
constr(19):  x_inst6050_0 + x_inst6050_1 = 1
constr(20):  x_inst5195_0 + x_inst5195_1 = 1
constr(21):  x_inst7234_0 + x_inst7234_1 = 1
constr(22):  10.94400 x_inst2015_0 + 15.04800 x_inst2591_0 + 9.57600 x_inst2908_0 + 8.20800 x_inst3428_0 + 13.68000 x_inst3502_0 + 8.20800 x_inst3444_0 + 8.20800 x_inst4132_0 + 25.99200 x_inst4183_0 + 12.31200 x_inst4062_0 + 5.47200 x_inst4678_0
 + 15.04800 x_inst4189_0 + 8.20800 x_inst4597_0 + 8.20800 x_inst4382_0 + 12.31200 x_inst5333_0 + 12.31200 x_inst5638_0 + 10.94400 x_inst6286_0 + 9.57600 x_inst5275_0 + 6.84000 x_inst5821_0 + 17.78400 x_inst6458_0 + 8.20800 x_inst6050_0
 + 12.31200 x_inst5195_0 + 10.94400 x_inst7234_0 >= 120.84000
constr(23):  10.94400 x_inst2015_0 + 15.04800 x_inst2591_0 + 9.57600 x_inst2908_0 + 8.20800 x_inst3428_0 + 13.68000 x_inst3502_0 + 8.20800 x_inst3444_0 + 8.20800 x_inst4132_0 + 25.99200 x_inst4183_0 + 12.31200 x_inst4062_0 + 5.47200 x_inst4678_0
 + 15.04800 x_inst4189_0 + 8.20800 x_inst4597_0 + 8.20800 x_inst4382_0 + 12.31200 x_inst5333_0 + 12.31200 x_inst5638_0 + 10.94400 x_inst6286_0 + 9.57600 x_inst5275_0 + 6.84000 x_inst5821_0 + 17.78400 x_inst6458_0 + 8.20800 x_inst6050_0
 + 12.31200 x_inst5195_0 + 10.94400 x_inst7234_0 <= 129.50400
constr(24):  10.94400 x_inst2015_1 + 15.04800 x_inst2591_1 + 9.57600 x_inst2908_1 + 8.20800 x_inst3428_1 + 13.68000 x_inst3502_1 + 8.20800 x_inst3444_1 + 8.20800 x_inst4132_1 + 25.99200 x_inst4183_1 + 12.31200 x_inst4062_1 + 5.47200 x_inst4678_1
 + 15.04800 x_inst4189_1 + 8.20800 x_inst4597_1 + 8.20800 x_inst4382_1 + 12.31200 x_inst5333_1 + 12.31200 x_inst5638_1 + 10.94400 x_inst6286_1 + 9.57600 x_inst5275_1 + 6.84000 x_inst5821_1 + 17.78400 x_inst6458_1 + 8.20800 x_inst6050_1
 + 12.31200 x_inst5195_1 + 10.94400 x_inst7234_1 >= 120.84000
constr(25):  10.94400 x_inst2015_1 + 15.04800 x_inst2591_1 + 9.57600 x_inst2908_1 + 8.20800 x_inst3428_1 + 13.68000 x_inst3502_1 + 8.20800 x_inst3444_1 + 8.20800 x_inst4132_1 + 25.99200 x_inst4183_1 + 12.31200 x_inst4062_1 + 5.47200 x_inst4678_1
 + 15.04800 x_inst4189_1 + 8.20800 x_inst4597_1 + 8.20800 x_inst4382_1 + 12.31200 x_inst5333_1 + 12.31200 x_inst5638_1 + 10.94400 x_inst6286_1 + 9.57600 x_inst5275_1 + 6.84000 x_inst5821_1 + 17.78400 x_inst6458_1 + 8.20800 x_inst6050_1
 + 12.31200 x_inst5195_1 + 10.94400 x_inst7234_1 <= 129.50400
constr(26):  - x_inst5638_0 + x_net1237_0 <= -0
constr(27):  - x_inst4678_0 + x_net1237_0 <= -0
constr(28):  - x_inst5638_1 + x_net1237_1 <= -0
constr(29):  - x_inst4678_1 + x_net1237_1 <= -0
constr(30):  - x_inst3502_0 + x_net1240_0 <= -0
constr(31):  - x_inst2015_0 + x_net1240_0 <= -0
constr(32):  - x_inst3502_1 + x_net1240_1 <= -0
constr(33):  - x_inst2015_1 + x_net1240_1 <= -0
constr(34):  - x_inst6050_0 + x_net1233_0 <= -0
constr(35):  - x_inst4189_0 + x_net1233_0 <= -0
constr(36):  - x_inst6050_1 + x_net1233_1 <= -0
constr(37):  - x_inst4189_1 + x_net1233_1 <= -0
constr(38):  - x_inst2908_0 + x_net1236_0 <= -0
constr(39):  - x_inst2591_0 + x_net1236_0 <= -0
constr(40):  - x_inst2908_1 + x_net1236_1 <= -0
constr(41):  - x_inst2591_1 + x_net1236_1 <= -0
constr(42):  - x_inst6458_0 + x_net1234_0 <= -0
constr(43):  - x_inst4597_0 + x_net1234_0 <= -0
constr(44):  - x_inst6458_1 + x_net1234_1 <= -0
constr(45):  - x_inst4597_1 + x_net1234_1 <= -0
constr(46):  - x_inst4382_0 + x_net1232_0 <= -0
constr(47):  - x_inst4062_0 + x_net1232_0 <= -0
constr(48):  - x_inst4382_1 + x_net1232_1 <= -0
constr(49):  - x_inst4062_1 + x_net1232_1 <= -0
constr(50):  - x_inst5821_0 + x_net1231_0 <= -0
constr(51):  - x_inst5275_0 + x_net1231_0 <= -0
constr(52):  - x_inst5821_1 + x_net1231_1 <= -0
constr(53):  - x_inst5275_1 + x_net1231_1 <= -0
constr(54):  - x_inst6286_0 + x_net1239_0 <= -0
constr(55):  - x_inst5333_0 + x_net1239_0 <= -0
constr(56):  - x_inst6286_1 + x_net1239_1 <= -0
constr(57):  - x_inst5333_1 + x_net1239_1 <= -0
constr(58):  - x_inst4183_0 + x_net1235_0 <= -0
constr(59):  - x_inst4132_0 + x_net1235_0 <= -0
constr(60):  - x_inst4183_1 + x_net1235_1 <= -0
constr(61):  - x_inst4132_1 + x_net1235_1 <= -0
constr(62):  - x_inst3444_0 + x_net1238_0 <= -0
constr(63):  - x_inst3428_0 + x_net1238_0 <= -0
constr(64):  - x_inst3444_1 + x_net1238_1 <= -0
constr(65):  - x_inst3428_1 + x_net1238_1 <= -0
constr(66):  - x_inst7234_0 + x_net1230_0 <= -0
constr(67):  - x_inst5195_0 + x_net1230_0 <= -0
constr(68):  - x_inst7234_1 + x_net1230_1 <= -0
constr(69):  - x_inst5195_1 + x_net1230_1 <= -0
Bounds
 0 <= x_inst2015_0 <= 1
 0 <= x_inst2015_1 <= 1
 0 <= x_inst2591_0 <= 1
 0 <= x_inst2591_1 <= 1
 0 <= x_inst2908_0 <= 1
 0 <= x_inst2908_1 <= 1
 0 <= x_inst3428_0 <= 1
 0 <= x_inst3428_1 <= 1
 0 <= x_inst3502_0 <= 1
 0 <= x_inst3502_1 <= 1
 0 <= x_inst3444_0 <= 1
 0 <= x_inst3444_1 <= 1
 0 <= x_inst4132_0 <= 1
 0 <= x_inst4132_1 <= 1
 0 <= x_inst4183_0 <= 1
 0 <= x_inst4183_1 <= 1
 0 <= x_inst4062_0 <= 1
 0 <= x_inst4062_1 <= 1
 0 <= x_inst4678_0 <= 1
 0 <= x_inst4678_1 <= 1
 0 <= x_inst4189_0 <= 1
 0 <= x_inst4189_1 <= 1
 0 <= x_inst4597_0 <= 1
 0 <= x_inst4597_1 <= 1
 0 <= x_inst4382_0 <= 1
 0 <= x_inst4382_1 <= 1
 0 <= x_inst5333_0 <= 1
 0 <= x_inst5333_1 <= 1
 0 <= x_inst5638_0 <= 1
 0 <= x_inst5638_1 <= 1
 0 <= x_inst6286_0 <= 1
 0 <= x_inst6286_1 <= 1
 0 <= x_inst5275_0 <= 1
 0 <= x_inst5275_1 <= 1
 0 <= x_inst5821_0 <= 1
 0 <= x_inst5821_1 <= 1
 0 <= x_inst6458_0 <= 1
 0 <= x_inst6458_1 <= 1
 0 <= x_inst6050_0 <= 1
 0 <= x_inst6050_1 <= 1
 0 <= x_inst5195_0 <= 1
 0 <= x_inst5195_1 <= 1
 0 <= x_inst7234_0 <= 1
 0 <= x_inst7234_1 <= 1
 0 <= x_net1237_0 <= 1
 0 <= x_net1237_1 <= 1
 0 <= x_net1240_0 <= 1
 0 <= x_net1240_1 <= 1
 0 <= x_net1233_0 <= 1
 0 <= x_net1233_1 <= 1
 0 <= x_net1236_0 <= 1
 0 <= x_net1236_1 <= 1
 0 <= x_net1234_0 <= 1
 0 <= x_net1234_1 <= 1
 0 <= x_net1232_0 <= 1
 0 <= x_net1232_1 <= 1
 0 <= x_net1231_0 <= 1
 0 <= x_net1231_1 <= 1
 0 <= x_net1239_0 <= 1
 0 <= x_net1239_1 <= 1
 0 <= x_net1235_0 <= 1
 0 <= x_net1235_1 <= 1
 0 <= x_net1238_0 <= 1
 0 <= x_net1238_1 <= 1
 0 <= x_net1230_0 <= 1
 0 <= x_net1230_1 <= 1
Integers
x_inst2015_0 x_inst2015_1 x_inst2591_0 x_inst2591_1 x_inst2908_0 x_inst2908_1 x_inst3428_0 x_inst3428_1 x_inst3502_0 x_inst3502_1 
x_inst3444_0 x_inst3444_1 x_inst4132_0 x_inst4132_1 x_inst4183_0 x_inst4183_1 x_inst4062_0 x_inst4062_1 x_inst4678_0 x_inst4678_1 
x_inst4189_0 x_inst4189_1 x_inst4597_0 x_inst4597_1 x_inst4382_0 x_inst4382_1 x_inst5333_0 x_inst5333_1 x_inst5638_0 x_inst5638_1 
x_inst6286_0 x_inst6286_1 x_inst5275_0 x_inst5275_1 x_inst5821_0 x_inst5821_1 x_inst6458_0 x_inst6458_1 x_inst6050_0 x_inst6050_1 
x_inst5195_0 x_inst5195_1 x_inst7234_0 x_inst7234_1 x_net1237_0 x_net1237_1 x_net1240_0 x_net1240_1 x_net1233_0 x_net1233_1 
x_net1236_0 x_net1236_1 x_net1234_0 x_net1234_1 x_net1232_0 x_net1232_1 x_net1231_0 x_net1231_1 x_net1239_0 x_net1239_1 
x_net1235_0 x_net1235_1 x_net1238_0 x_net1238_1 x_net1230_0 x_net1230_1 
End
